letting n =  10
letting blocks =  [[1, 1], [1, 3], [1, 4], [1, 5], [1, 9], [2, 1], [2, 4], [2, 5], [2, 6], [2, 7], [2, 10], [3, 1], [3, 3], [3, 4], [3, 5], [4, 1], [4, 4], [4, 6], [4, 7], [4, 8], [4, 10], [5, 2], [5, 3], [5, 7], [5, 9], [5, 10], [6, 1], [6, 2], [6, 5], [6, 8], [6, 10], [7, 2], [7, 4], [7, 6], [7, 9], [8, 2], [8, 3], [8, 5], [8, 9], [8, 10], [9, 1], [9, 2], [9, 4], [9, 6], [9, 7], [9, 8], [10, 3], [10, 5], [10, 6], [10, 8], [10, 9], [10, 10]]
